
  15    0


   0   7 2 3 4 11 12 13 14 
  10   4 10 9 8 5 
  10   2 7 5 
   5   1 6 
   4   1 15
   5   1 15
   4   1 15
   8   1 15
   5   1 15
   4   1 15
  10   1 15
   9   1 15
   5   1 15
   1   1 15
   0   0 
